(set-option :print-success false)
(set-logic QF_UF)
(declare-sort x101 0)
(declare-sort x54 0)
(declare-fun x126 (x54 x54) x54)
(declare-fun x98 () x54)
(declare-fun x57 () x54)
(declare-fun x4 () x54)
(declare-fun x50 () x54)
(declare-fun x87 () x54)
(assert (not (and (and (and (= x98 (x126 x87 x87)) (= (x126 x4 x4) x50)) (= (x126 x50 x4) x57)) (= x87 (x126 x4 x50)))))
(assert (not (and (= (x126 x57 x98) x4) (and (= (x126 x98 x57) x50) (and (= x87 (x126 x4 x4)) (= (x126 x57 x57) x98))))))
(assert (not (and (and (= (x126 x57 x87) x4) (and (= x57 (x126 x87 x87)) (= (x126 x98 x98) x50))) (= (x126 x87 x57) x98))))
(assert (not (and (= x98 (x126 x4 x87)) (and (= (x126 x87 x4) x57) (and (= (x126 x98 x98) x50) (= (x126 x4 x4) x87))))))
(assert (not (and (= x57 (x126 x98 x50)) (and (= x4 (x126 x50 x98)) (and (= x87 (x126 x57 x57)) (= (x126 x98 x98) x50))))))
(assert (not (and (= x98 (x126 x4 x50)) (and (= x57 (x126 x50 x4)) (and (= x87 (x126 x98 x98)) (= (x126 x4 x4) x50))))))
(assert (not (and (and (and (= (x126 x98 x98) x57) (= x50 (x126 x4 x4))) (= x87 (x126 x50 x4))) (= x98 (x126 x4 x50)))))
(assert (not (and (and (and (= (x126 x57 x57) x50) (= (x126 x4 x4) x87)) (= (x126 x87 x4) x98)) (= (x126 x4 x87) x57))))
(assert (not (and (= x87 (x126 x50 x4)) (and (= x57 (x126 x4 x50)) (and (= x4 (x126 x50 x50)) (= (x126 x87 x87) x98))))))
(assert (not (and (and (= x57 (x126 x50 x98)) (and (= (x126 x98 x98) x50) (= x87 (x126 x4 x4)))) (= (x126 x98 x50) x4))))
(assert (not (and (= (x126 x50 x87) x4) (and (and (= (x126 x4 x4) x57) (= x87 (x126 x50 x50))) (= x98 (x126 x87 x50))))))
(assert (not (and (= x57 (x126 x50 x4)) (and (and (= x4 (x126 x50 x50)) (= x98 (x126 x57 x57))) (= x87 (x126 x4 x50))))))
(assert (not (and (and (and (= (x126 x50 x50) x87) (= (x126 x98 x98) x4)) (= (x126 x87 x50) x57)) (= x98 (x126 x50 x87)))))
(assert (not (and (= (x126 x98 x87) x50) (and (= x4 (x126 x87 x98)) (and (= x57 (x126 x50 x50)) (= x87 (x126 x98 x98)))))))
(assert (not (and (= (x126 x87 x57) x4) (and (and (= (x126 x4 x4) x98) (= x57 (x126 x87 x87))) (= (x126 x57 x87) x50)))))
(assert (not (and (= x87 (x126 x50 x57)) (and (and (= (x126 x87 x87) x98) (= (x126 x50 x50) x57)) (= (x126 x57 x50) x4)))))
(assert (not (and (= x50 (x126 x4 x57)) (and (and (= (x126 x4 x4) x57) (= x98 (x126 x50 x50))) (= (x126 x57 x4) x87)))))
(assert (not (and (and (and (= (x126 x98 x98) x4) (= (x126 x87 x87) x50)) (= (x126 x50 x87) x57)) (= x98 (x126 x87 x50)))))
(assert (not (and (and (= x57 (x126 x98 x87)) (and (= x98 (x126 x87 x87)) (= (x126 x50 x50) x4))) (= x50 (x126 x87 x98)))))
(assert (not (and (= (x126 x98 x4) x50) (and (= (x126 x4 x98) x87) (and (= x4 (x126 x98 x98)) (= (x126 x50 x50) x57))))))
(assert (not (and (= (x126 x57 x98) x87) (and (= (x126 x98 x57) x50) (and (= x4 (x126 x87 x87)) (= (x126 x57 x57) x98))))))
(assert (not (and (and (= (x126 x98 x50) x57) (and (= (x126 x87 x87) x4) (= (x126 x50 x50) x98))) (= (x126 x50 x98) x87))))
(assert (not (and (= x87 (x126 x57 x4)) (and (and (= (x126 x57 x57) x4) (= x50 (x126 x87 x87))) (= x98 (x126 x4 x57))))))
(assert (not (and (and (and (= x87 (x126 x50 x50)) (= x4 (x126 x57 x57))) (= (x126 x87 x50) x98)) (= (x126 x50 x87) x57))))
(assert (not (and (and (and (= (x126 x98 x98) x57) (= (x126 x50 x50) x87)) (= (x126 x57 x98) x4)) (= x50 (x126 x98 x57)))))
(assert (not (and (= x57 (x126 x98 x87)) (and (and (= x87 (x126 x98 x98)) (= x4 (x126 x57 x57))) (= x50 (x126 x87 x98))))))
(assert (not (and (= (x126 x98 x87) x4) (and (and (= (x126 x4 x4) x50) (= (x126 x98 x98) x87)) (= (x126 x87 x98) x57)))))
(assert (let ((x6 (x126 x98 x98)) (x42 (x126 x87 x87)) (x53 (x126 x4 x4)) (x152 (x126 x57 x57)) (x26 (x126 x50 x50))) (or (and (not (= x87 x42)) (and (not (= x6 x87)) (and (and (not (= x26 x87)) (not (= x87 x152))) (not (= x87 x53))))) (or (or (and (not (= x4 x42)) (and (and (and (not (= x4 x26)) (not (= x152 x4))) (not (= x4 x53))) (not (= x4 x6)))) (or (and (not (= x42 x57)) (and (and (not (= x53 x57)) (and (not (= x152 x57)) (not (= x57 x26)))) (not (= x6 x57)))) (and (and (and (not (= x50 x53)) (and (not (= x50 x26)) (not (= x152 x50)))) (not (= x6 x50))) (not (= x50 x42))))) (and (not (= x98 x42)) (and (not (= x6 x98)) (and (not (= x98 x53)) (and (not (= x26 x98)) (not (= x98 x152))))))))))
(assert (let ((x155 (x126 x4 x57)) (x60 (x126 x98 x4)) (x111 (x126 x57 x4)) (x47 (x126 x98 x57)) (x55 (x126 x98 x87)) (x42 (x126 x50 x87)) (x118 (x126 x57 x87)) (x140 (x126 x4 x4)) (x37 (x126 x87 x50)) (x132 (x126 x4 x50)) (x6 (x126 x50 x98)) (x120 (x126 x4 x98)) (x31 (x126 x98 x98)) (x19 (x126 x87 x57)) (x16 (x126 x98 x50)) (x148 (x126 x87 x98)) (x146 (x126 x4 x87)) (x26 (x126 x50 x50)) (x32 (x126 x57 x50)) (x3 (x126 x57 x98)) (x123 (x126 x87 x4)) (x53 (x126 x50 x4)) (x2 (x126 x57 x57)) (x152 (x126 x50 x57)) (x48 (x126 x87 x87))) (and (and (and (and (and (and (and (and (or (or (or (= x26 x4) (or (= x26 x57) (= x26 x50))) (= x98 x26)) (= x26 x87)) (or (= x152 x87) (or (= x98 x152) (or (= x152 x4) (or (= x152 x50) (= x57 x152)))))) (or (or (or (= x53 x4) (or (= x53 x57) (= x50 x53))) (= x98 x53)) (= x87 x53))) (or (or (or (= x4 x6) (or (= x6 x50) (= x6 x57))) (= x6 x98)) (= x6 x87))) (or (= x42 x87) (or (or (= x4 x42) (or (= x57 x42) (= x50 x42))) (= x42 x98)))) (and (or (= x118 x87) (or (= x98 x118) (or (or (= x118 x57) (= x118 x50)) (= x4 x118)))) (and (and (or (or (= x98 x111) (or (= x4 x111) (or (= x111 x57) (= x50 x111)))) (= x87 x111)) (and (or (= x87 x2) (or (= x98 x2) (or (= x4 x2) (or (= x2 x50) (= x2 x57))))) (or (= x32 x87) (or (= x32 x98) (or (= x32 x4) (or (= x32 x50) (= x57 x32))))))) (or (or (= x98 x3) (or (= x4 x3) (or (= x57 x3) (= x50 x3)))) (= x3 x87))))) (and (or (or (or (= x4 x146) (or (= x50 x146) (= x146 x57))) (= x146 x98)) (= x87 x146)) (and (or (= x120 x87) (or (= x98 x120) (or (= x120 x4) (or (= x57 x120) (= x50 x120))))) (and (or (or (= x98 x140) (or (or (= x140 x57) (= x50 x140)) (= x140 x4))) (= x140 x87)) (and (or (or (or (or (= x155 x57) (= x155 x50)) (= x4 x155)) (= x155 x98)) (= x87 x155)) (or (= x87 x132) (or (or (= x132 x4) (or (= x57 x132) (= x132 x50))) (= x98 x132)))))))) (and (and (and (and (or (or (= x98 x47) (or (= x4 x47) (or (= x47 x50) (= x57 x47)))) (= x47 x87)) (or (or (= x98 x16) (or (= x16 x4) (or (= x16 x50) (= x16 x57)))) (= x87 x16))) (or (= x60 x87) (or (= x60 x98) (or (or (= x60 x57) (= x50 x60)) (= x4 x60))))) (or (= x31 x87) (or (or (or (= x31 x57) (= x31 x50)) (= x4 x31)) (= x31 x98)))) (or (= x55 x87) (or (or (= x4 x55) (or (= x55 x50) (= x57 x55))) (= x98 x55))))) (and (and (and (or (or (or (= x4 x123) (or (= x57 x123) (= x50 x123))) (= x98 x123)) (= x87 x123)) (and (or (or (= x98 x37) (or (= x37 x4) (or (= x37 x50) (= x37 x57)))) (= x87 x37)) (or (or (= x98 x19) (or (or (= x19 x50) (= x57 x19)) (= x4 x19))) (= x87 x19)))) (or (= x148 x87) (or (= x98 x148) (or (= x148 x4) (or (= x57 x148) (= x50 x148)))))) (or (= x48 x87) (or (or (or (= x57 x48) (= x48 x50)) (= x48 x4)) (= x98 x48)))))))
(assert (not (and (and (= x87 (x126 x57 x98)) (and (= x4 (x126 x50 x50)) (= (x126 x98 x98) x57))) (= x50 (x126 x98 x57)))))
(assert (not (and (= x98 (x126 x87 x57)) (and (and (= x57 (x126 x87 x87)) (= (x126 x98 x98) x4)) (= (x126 x57 x87) x50)))))
(assert (not (and (= (x126 x87 x4) x98) (and (= (x126 x4 x87) x57) (and (= (x126 x87 x87) x4) (= x50 (x126 x98 x98)))))))
(assert (not (and (= (x126 x50 x57) x98) (and (and (= (x126 x98 x98) x4) (= x57 (x126 x50 x50))) (= x87 (x126 x57 x50))))))
(assert (not (and (= (x126 x57 x4) x50) (and (= (x126 x4 x57) x87) (and (= x4 (x126 x57 x57)) (= (x126 x50 x50) x98))))))
(assert (not (and (= x98 (x126 x50 x4)) (and (and (= (x126 x50 x50) x4) (= x87 (x126 x98 x98))) (= x57 (x126 x4 x50))))))
(assert (not (and (and (= x50 (x126 x57 x98)) (and (= (x126 x98 x98) x57) (= x87 (x126 x4 x4)))) (= x4 (x126 x98 x57)))))
(assert (not (and (and (and (= x4 (x126 x98 x98)) (= x50 (x126 x57 x57))) (= (x126 x4 x98) x87)) (= x57 (x126 x98 x4)))))
(assert (not (and (= x4 (x126 x98 x57)) (and (and (= (x126 x4 x4) x50) (= (x126 x98 x98) x57)) (= x87 (x126 x57 x98))))))
(assert (not (and (and (= x98 (x126 x87 x4)) (and (= x87 (x126 x4 x4)) (= x57 (x126 x50 x50)))) (= x50 (x126 x4 x87)))))
(assert (not (and (= x98 (x126 x50 x57)) (and (and (= x87 (x126 x98 x98)) (= (x126 x50 x50) x57)) (= x4 (x126 x57 x50))))))
(assert (not (and (and (= x98 (x126 x4 x87)) (and (= x4 (x126 x87 x87)) (= x50 (x126 x57 x57)))) (= (x126 x87 x4) x57))))
(assert (not (and (and (and (= x4 (x126 x87 x87)) (= (x126 x50 x50) x98)) (= x57 (x126 x4 x87))) (= (x126 x87 x4) x50))))
(assert (not (and (and (and (= x50 (x126 x4 x4)) (= (x126 x87 x87) x57)) (= x98 (x126 x57 x87))) (= x4 (x126 x87 x57)))))
(assert (not (and (= x87 (x126 x50 x98)) (and (and (= (x126 x50 x50) x98) (= (x126 x87 x87) x57)) (= (x126 x98 x50) x4)))))
(assert (not (and (and (and (= x87 (x126 x57 x57)) (= x4 (x126 x98 x98))) (= x50 (x126 x4 x98))) (= x57 (x126 x98 x4)))))
(assert (not (and (= x4 (x126 x57 x50)) (and (and (= (x126 x4 x4) x98) (= x50 (x126 x57 x57))) (= x87 (x126 x50 x57))))))
(assert (not (and (and (= (x126 x4 x50) x87) (and (= (x126 x98 x98) x57) (= (x126 x50 x50) x4))) (= (x126 x50 x4) x98))))
(assert (not (and (and (= (x126 x98 x4) x57) (and (= x50 (x126 x87 x87)) (= (x126 x4 x4) x98))) (= (x126 x4 x98) x87))))
(assert (not (and (and (= x57 (x126 x4 x98)) (and (= (x126 x50 x50) x87) (= (x126 x98 x98) x4))) (= x50 (x126 x98 x4)))))
(assert (not (and (and (and (= x50 (x126 x57 x57)) (= x87 (x126 x98 x98))) (= (x126 x87 x98) x4)) (= (x126 x98 x87) x57))))
(assert (not (and (= x87 (x126 x57 x50)) (and (= x98 (x126 x50 x57)) (and (= (x126 x87 x87) x4) (= x50 (x126 x57 x57)))))))
(assert (not (and (and (and (= x4 (x126 x57 x57)) (= (x126 x98 x98) x50)) (= (x126 x50 x98) x87)) (= (x126 x98 x50) x57))))
(assert (not (and (and (= x4 (x126 x98 x57)) (and (= x50 (x126 x87 x87)) (= x98 (x126 x57 x57)))) (= (x126 x57 x98) x87))))
(assert (not (and (and (= x4 (x126 x50 x57)) (and (= (x126 x87 x87) x98) (= (x126 x57 x57) x50))) (= (x126 x57 x50) x87))))
(assert (not (and (and (and (= (x126 x98 x98) x57) (= x4 (x126 x87 x87))) (= (x126 x4 x87) x50)) (= (x126 x87 x4) x98))))
(assert (not (and (= x87 (x126 x98 x4)) (and (= (x126 x4 x98) x50) (and (= (x126 x87 x87) x57) (= (x126 x98 x98) x4))))))
(assert (not (and (and (= (x126 x50 x4) x98) (and (= (x126 x4 x4) x50) (= x87 (x126 x57 x57)))) (= (x126 x4 x50) x57))))
(assert (not (and (and (and (= (x126 x98 x98) x50) (= (x126 x87 x87) x4)) (= x57 (x126 x50 x98))) (= x87 (x126 x98 x50)))))
(assert (not (and (= x98 (x126 x87 x50)) (and (and (= x57 (x126 x98 x98)) (= (x126 x87 x87) x50)) (= x4 (x126 x50 x87))))))
(assert (not (and (= x57 (x126 x87 x4)) (and (and (= x98 (x126 x57 x57)) (= x4 (x126 x87 x87))) (= x50 (x126 x4 x87))))))
(assert (not (and (and (and (= x50 (x126 x4 x4)) (= (x126 x57 x57) x87)) (= (x126 x87 x57) x98)) (= x4 (x126 x57 x87)))))
(assert (not (and (= (x126 x50 x57) x4) (and (and (= x98 (x126 x4 x4)) (= (x126 x50 x50) x57)) (= (x126 x57 x50) x87)))))
(assert (not (and (= x4 (x126 x57 x87)) (and (and (= (x126 x57 x57) x87) (= (x126 x4 x4) x98)) (= (x126 x87 x57) x50)))))
(assert (not (and (and (and (= (x126 x57 x57) x98) (= (x126 x50 x50) x87)) (= (x126 x87 x50) x4)) (= (x126 x50 x87) x57))))
(assert (not (and (and (and (= (x126 x57 x57) x98) (= (x126 x50 x50) x87)) (= (x126 x98 x57) x4)) (= (x126 x57 x98) x50))))
(assert (not (and (= (x126 x50 x98) x4) (and (and (= (x126 x4 x4) x87) (= (x126 x50 x50) x98)) (= (x126 x98 x50) x57)))))
(assert (not (and (and (= x4 (x126 x98 x87)) (and (= (x126 x87 x87) x98) (= (x126 x57 x57) x50))) (= (x126 x87 x98) x57))))
(assert (not (and (= x98 (x126 x4 x57)) (and (and (= x50 (x126 x98 x98)) (= (x126 x4 x4) x57)) (= (x126 x57 x4) x87)))))
(assert (not (and (= x87 (x126 x50 x57)) (and (= (x126 x57 x50) x98) (and (= (x126 x87 x87) x4) (= x57 (x126 x50 x50)))))))
(assert (and (not (= x87 x98)) (and (not (= x4 x87)) (and (and (and (and (and (and (not (= x98 x50)) (and (not (= x50 x57)) (not (= x4 x50)))) (not (= x50 x87))) (not (= x4 x57))) (not (= x98 x57))) (not (= x87 x57))) (not (= x4 x98))))))
(assert (or (and (and (and (not (= (x126 (x126 x4 x87) x87) x4)) (and (not (= x50 (x126 (x126 x50 x87) x87))) (not (= x57 (x126 (x126 x57 x87) x87))))) (not (= (x126 (x126 x98 x87) x87) x98))) (not (= (x126 (x126 x87 x87) x87) x87))) (or (or (or (and (not (= x87 (x126 (x126 x87 x50) x50))) (and (and (and (not (= x50 (x126 (x126 x50 x50) x50))) (not (= (x126 (x126 x57 x50) x50) x57))) (not (= (x126 (x126 x4 x50) x50) x4))) (not (= (x126 (x126 x98 x50) x50) x98)))) (and (not (= x87 (x126 (x126 x87 x57) x57))) (and (not (= x98 (x126 (x126 x98 x57) x57))) (and (and (not (= (x126 (x126 x50 x57) x57) x50)) (not (= x57 (x126 (x126 x57 x57) x57)))) (not (= x4 (x126 (x126 x4 x57) x57))))))) (and (not (= (x126 (x126 x87 x4) x4) x87)) (and (not (= x98 (x126 (x126 x98 x4) x4))) (and (not (= x4 (x126 (x126 x4 x4) x4))) (and (not (= x50 (x126 (x126 x50 x4) x4))) (not (= x57 (x126 (x126 x57 x4) x4)))))))) (and (and (not (= x98 (x126 (x126 x98 x98) x98))) (and (and (not (= x57 (x126 (x126 x57 x98) x98))) (not (= (x126 (x126 x50 x98) x98) x50))) (not (= x4 (x126 (x126 x4 x98) x98))))) (not (= (x126 (x126 x87 x98) x98) x87))))))
(assert (not (and (= (x126 x4 x57) x87) (and (= x50 (x126 x57 x4)) (and (= x57 (x126 x4 x4)) (= x98 (x126 x87 x87)))))))
(assert (not (and (= (x126 x57 x4) x98) (and (and (= (x126 x98 x98) x87) (= (x126 x57 x57) x4)) (= (x126 x4 x57) x50)))))
(assert (let ((x19 (x126 x57 x87)) (x2 (x126 x57 x57)) (x37 (x126 x50 x87)) (x118 (x126 x87 x57)) (x42 (x126 x87 x50)) (x123 (x126 x4 x87)) (x148 (x126 x98 x87)) (x32 (x126 x50 x57)) (x55 (x126 x87 x98)) (x146 (x126 x87 x4)) (x16 (x126 x50 x98)) (x155 (x126 x57 x4)) (x111 (x126 x4 x57)) (x3 (x126 x98 x57)) (x53 (x126 x4 x50)) (x120 (x126 x98 x4)) (x132 (x126 x50 x4)) (x31 (x126 x98 x98)) (x6 (x126 x98 x50)) (x60 (x126 x4 x98)) (x140 (x126 x4 x4)) (x48 (x126 x87 x87)) (x152 (x126 x57 x50)) (x47 (x126 x57 x98)) (x26 (x126 x50 x50))) (and (and (and (and (and (and (and (not (= x55 x47)) (and (not (= x47 x31)) (and (not (= x47 x60)) (and (not (= x55 x16)) (and (and (not (= x47 x16)) (not (= x16 x60))) (not (= x31 x16))))))) (not (= x31 x60))) (not (= x55 x60))) (not (= x31 x55))) (and (and (and (and (and (and (not (= x120 x155)) (and (and (not (= x146 x132)) (and (not (= x132 x120)) (and (not (= x132 x155)) (not (= x132 x140))))) (not (= x155 x140)))) (not (= x155 x146))) (not (= x140 x120))) (not (= x140 x146))) (not (= x146 x120))) (and (and (and (and (and (and (and (not (= x53 x152)) (and (and (not (= x6 x26)) (and (not (= x53 x26)) (not (= x26 x152)))) (not (= x42 x26)))) (not (= x6 x152))) (not (= x42 x152))) (not (= x6 x53))) (not (= x42 x53))) (not (= x6 x42))) (and (and (not (= x118 x111)) (and (and (and (not (= x2 x3)) (and (not (= x111 x2)) (and (not (= x118 x32)) (and (not (= x3 x32)) (and (not (= x2 x32)) (not (= x32 x111))))))) (not (= x2 x118))) (not (= x111 x3)))) (not (= x118 x3)))))) (and (not (= x148 x48)) (and (and (and (and (and (and (and (and (not (= x37 x123)) (not (= x19 x37))) (not (= x148 x37))) (not (= x48 x37))) (not (= x123 x19))) (not (= x148 x19))) (not (= x48 x19))) (not (= x123 x148))) (not (= x123 x48))))) (and (and (not (= x55 x48)) (and (not (= x146 x48)) (and (not (= x55 x146)) (and (not (= x118 x48)) (and (and (and (and (not (= x42 x55)) (and (not (= x42 x118)) (not (= x146 x42)))) (not (= x48 x42))) (not (= x146 x118))) (not (= x118 x55))))))) (and (and (and (not (= x123 x60)) (and (not (= x140 x123)) (and (and (not (= x123 x111)) (and (not (= x111 x60)) (and (and (and (not (= x53 x60)) (and (not (= x140 x53)) (not (= x111 x53)))) (not (= x53 x123))) (not (= x111 x140))))) (not (= x60 x140))))) (and (and (not (= x16 x37)) (and (and (and (not (= x32 x37)) (and (not (= x32 x16)) (and (not (= x132 x32)) (and (and (not (= x16 x26)) (and (not (= x132 x26)) (not (= x26 x32)))) (not (= x37 x26)))))) (not (= x16 x132))) (not (= x37 x132)))) (and (not (= x47 x19)) (and (not (= x19 x155)) (and (and (not (= x19 x2)) (and (not (= x2 x47)) (and (not (= x2 x155)) (and (and (and (not (= x2 x152)) (not (= x155 x152))) (not (= x152 x47))) (not (= x152 x19)))))) (not (= x155 x47))))))) (and (not (= x148 x31)) (and (and (and (and (not (= x3 x31)) (and (and (not (= x148 x6)) (and (and (not (= x6 x3)) (not (= x6 x120))) (not (= x6 x31)))) (not (= x120 x3)))) (not (= x3 x148))) (not (= x31 x120))) (not (= x120 x148)))))))))
(assert (not (and (and (= x98 (x126 x50 x4)) (and (= (x126 x4 x4) x50) (= (x126 x87 x87) x57))) (= (x126 x4 x50) x87))))
(assert (not (and (= (x126 x50 x57) x4) (and (= (x126 x57 x50) x98) (and (= (x126 x4 x4) x87) (= x57 (x126 x50 x50)))))))
(assert (not (and (= x98 (x126 x57 x87)) (and (and (= x87 (x126 x57 x57)) (= (x126 x98 x98) x50)) (= x4 (x126 x87 x57))))))
(assert (not (and (and (= x57 (x126 x50 x87)) (and (= x98 (x126 x4 x4)) (= x50 (x126 x87 x87)))) (= (x126 x87 x50) x4))))
(assert (not (and (and (and (= x98 (x126 x57 x57)) (= (x126 x4 x4) x50)) (= (x126 x98 x57) x87)) (= (x126 x57 x98) x4))))
(assert (not (and (= x4 (x126 x87 x98)) (and (and (= x98 (x126 x87 x87)) (= x57 (x126 x4 x4))) (= (x126 x98 x87) x50)))))
(assert (not (and (and (and (= (x126 x4 x4) x87) (= (x126 x57 x57) x98)) (= (x126 x87 x4) x50)) (= x57 (x126 x4 x87)))))
(assert (not (and (and (and (= x57 (x126 x4 x4)) (= (x126 x50 x50) x98)) (= (x126 x98 x50) x87)) (= x4 (x126 x50 x98)))))
(assert (not (and (= x50 (x126 x87 x98)) (and (and (= x57 (x126 x50 x50)) (= x98 (x126 x87 x87))) (= x4 (x126 x98 x87))))))
(assert (not (and (and (= (x126 x87 x4) x57) (and (= (x126 x50 x50) x98) (= (x126 x4 x4) x87))) (= x50 (x126 x4 x87)))))
(assert (not (and (= x87 (x126 x50 x4)) (and (= (x126 x4 x50) x98) (and (= x4 (x126 x50 x50)) (= x57 (x126 x87 x87)))))))
(assert (not (and (and (= x57 (x126 x87 x50)) (and (= x87 (x126 x50 x50)) (= (x126 x4 x4) x98))) (= (x126 x50 x87) x4))))
(assert (not (and (and (= x50 (x126 x98 x4)) (and (= (x126 x4 x4) x98) (= x87 (x126 x57 x57)))) (= (x126 x4 x98) x57))))
(assert (not (and (= (x126 x57 x87) x98) (and (and (= (x126 x98 x98) x4) (= x87 (x126 x57 x57))) (= (x126 x87 x57) x50)))))
(assert (not (and (and (= x4 (x126 x50 x87)) (and (= x98 (x126 x57 x57)) (= x50 (x126 x87 x87)))) (= (x126 x87 x50) x57))))
(assert (not (and (and (and (= (x126 x98 x98) x4) (= x50 (x126 x57 x57))) (= x87 (x126 x50 x57))) (= (x126 x57 x50) x98))))
(assert (not (and (= x98 (x126 x4 x87)) (and (and (= x87 (x126 x4 x4)) (= x57 (x126 x98 x98))) (= x50 (x126 x87 x4))))))
(assert (not (and (and (and (= x98 (x126 x50 x50)) (= x87 (x126 x57 x57))) (= (x126 x87 x57) x4)) (= x50 (x126 x57 x87)))))
(assert (not (and (and (and (= (x126 x50 x50) x98) (= x87 (x126 x57 x57))) (= x4 (x126 x98 x50))) (= x57 (x126 x50 x98)))))
(assert (or (= (x126 x87 x87) x87) (or (= (x126 x98 x98) x98) (or (= (x126 x4 x4) x4) (or (= x57 (x126 x57 x57)) (= (x126 x50 x50) x50))))))
(assert (not (and (and (and (= x57 (x126 x4 x4)) (= (x126 x50 x50) x87)) (= x98 (x126 x57 x4))) (= x50 (x126 x4 x57)))))
(assert (not (and (= x87 (x126 x4 x98)) (and (and (= (x126 x87 x87) x57) (= (x126 x4 x4) x98)) (= (x126 x98 x4) x50)))))
(assert (not (and (= (x126 x87 x4) x50) (and (and (= (x126 x87 x87) x4) (= x57 (x126 x50 x50))) (= x98 (x126 x4 x87))))))
(assert (not (and (and (and (= x57 (x126 x4 x4)) (= (x126 x87 x87) x50)) (= (x126 x57 x4) x98)) (= x87 (x126 x4 x57)))))
(assert (not (and (and (and (= x57 (x126 x4 x4)) (= x50 (x126 x98 x98))) (= x87 (x126 x50 x98))) (= x4 (x126 x98 x50)))))
(assert (not (and (= (x126 x4 x98) x50) (and (= x87 (x126 x98 x4)) (and (= x98 (x126 x4 x4)) (= x57 (x126 x50 x50)))))))
(assert (not (and (= x50 (x126 x87 x57)) (and (= x98 (x126 x57 x87)) (and (= (x126 x87 x87) x57) (= (x126 x50 x50) x4))))))
(assert (not (and (and (and (= (x126 x57 x57) x98) (= x4 (x126 x50 x50))) (= (x126 x98 x57) x87)) (= x50 (x126 x57 x98)))))
(assert (not (and (and (and (= (x126 x87 x87) x4) (= (x126 x98 x98) x57)) (= (x126 x57 x98) x50)) (= (x126 x98 x57) x87))))
(assert (not (and (and (= (x126 x50 x87) x98) (and (= (x126 x87 x87) x50) (= x4 (x126 x57 x57)))) (= x57 (x126 x87 x50)))))
(assert (let ((x19 (x126 x57 x87)) (x139 (x126 x87 x57)) (x89 (x126 x87 x98)) (x112 (x126 x87 x87)) (x42 (x126 x50 x98)) (x32 (x126 x50 x87)) (x11 (x126 x4 x4)) (x3 (x126 x4 x50)) (x53 (x126 x50 x57)) (x55 (x126 x57 x4)) (x152 (x126 x50 x50)) (x37 (x126 x57 x98)) (x6 (x126 x50 x4)) (x118 (x126 x98 x50)) (x43 (x126 x98 x98)) (x135 (x126 x98 x87)) (x24 (x126 x98 x4)) (x29 (x126 x87 x4)) (x28 (x126 x4 x87)) (x111 (x126 x57 x50)) (x132 (x126 x87 x50)) (x110 (x126 x98 x57)) (x31 (x126 x57 x57)) (x69 (x126 x4 x98)) (x48 (x126 x4 x57))) (let ((x82 (= x98 x31)) (x71 (= x87 x69)) (x38 (= x98 x11)) (x62 (= x87 x53)) (x16 (= x53 x50)) (x105 (= x132 x87)) (x21 (= x19 x4)) (x151 (= x50 x55)) (x45 (= x3 x4)) (x72 (= x110 x50)) (x103 (= x19 x98)) (x7 (= x57 x112)) (x33 (= x50 x135)) (x127 (= x28 x4)) (x39 (= x118 x57)) (x84 (= x98 x55)) (x109 (= x98 x69)) (x41 (= x98 x29)) (x104 (= x87 x43)) (x30 (= x4 x135)) (x142 (= x57 x43)) (x119 (= x57 x11)) (x75 (= x87 x37)) (x70 (= x98 x28)) (x134 (= x55 x57)) (x141 (= x69 x57)) (x117 (= x57 x89)) (x124 (= x57 x19)) (x86 (= x37 x4)) (x148 (= x31 x57)) (x145 (= x42 x50)) (x129 (= x28 x50)) (x147 (= x4 x31)) (x137 (= x37 x98)) (x8 (= x110 x98)) (x12 (= x32 x98)) (x130 (= x48 x87)) (x78 (= x50 x24)) (x96 (= x6 x50)) (x51 (= x57 x29)) (x23 (= x69 x50)) (x56 (= x135 x57)) (x26 (= x50 x152)) (x133 (= x139 x57)) (x5 (= x135 x87)) (x14 (= x32 x57)) (x18 (= x50 x112)) (x114 (= x50 x3)) (x74 (= x98 x48)) (x88 (= x139 x87)) (x13 (= x55 x87)) (x158 (= x57 x28)) (x61 (= x4 x6)) (x35 (= x11 x87)) (x150 (= x4 x24)) (x1 (= x43 x4)) (x15 (= x98 x43)) (x146 (= x111 x50)) (x22 (= x98 x42)) (x122 (= x69 x4)) (x47 (= x31 x50)) (x128 (= x29 x50)) (x108 (= x55 x4)) (x156 (= x132 x57)) (x83 (= x48 x50)) (x131 (= x53 x4)) (x65 (= x50 x43)) (x67 (= x110 x4)) (x155 (= x152 x4)) (x34 (= x19 x87)) (x44 (= x6 x87)) (x92 (= x98 x112)) (x140 (= x98 x152)) (x79 (= x42 x4)) (x91 (= x50 x132)) (x143 (= x118 x98)) (x85 (= x4 x139)) (x90 (= x89 x50)) (x123 (= x57 x53)) (x81 (= x50 x37)) (x149 (= x110 x57)) (x97 (= x98 x24)) (x107 (= x4 x111)) (x73 (= x4 x118)) (x154 (= x139 x98)) (x25 (= x24 x87)) (x120 (= x87 x152)) (x136 (= x50 x139)) (x94 (= x87 x118)) (x49 (= x89 x4)) (x157 (= x87 x28)) (x36 (= x98 x132)) (x80 (= x57 x48)) (x58 (= x4 x32)) (x52 (= x3 x57)) (x100 (= x11 x50)) (x27 (= x32 x87)) (x59 (= x6 x57)) (x17 (= x3 x98)) (x2 (= x57 x152)) (x9 (= x19 x50)) (x144 (= x6 x98)) (x46 (= x87 x111)) (x95 (= x50 x32)) (x113 (= x11 x4)) (x20 (= x87 x110)) (x76 (= x57 x24)) (x138 (= x42 x57)) (x64 (= x89 x98)) (x125 (= x87 x112)) (x63 (= x87 x89)) (x106 (= x112 x4)) (x77 (= x98 x111)) (x66 (= x4 x132)) (x115 (= x4 x29)) (x68 (= x98 x135)) (x60 (= x57 x111)) (x102 (= x48 x4)) (x116 (= x31 x87)) (x99 (= x87 x29)) (x93 (= x3 x87)) (x40 (= x50 x118)) (x121 (= x42 x87)) (x153 (= x37 x57)) (x10 (= x53 x98))) (and (and (and (and (and (and (and (or (or (or x17 (or x77 x140)) x143) x36) (or (or (or x144 (or x10 x140)) x22) x12)) (and (and (or (or x79 (or (or x131 x155) x61)) x58) (or (or x73 (or (or x155 x107) x45)) x66)) (and (and (or x14 (or x138 (or (or x2 x123) x59))) (or (or (or (or x2 x60) x52) x39) x156)) (and (or (or x40 (or x114 (or x146 x26))) x91) (or (or x145 (or (or x16 x26) x96)) x95))))) (and (or (or (or x44 (or x120 x62)) x121) x27) (or (or x94 (or (or x46 x120) x93)) x105))) (and (and (or (or x75 (or x13 (or x116 x46))) x34) (or (or (or (or x62 x116) x130) x20) x88)) (and (and (and (or (or x67 (or (or x147 x131) x102)) x85) (or (or (or (or x147 x107) x108) x86) x21)) (and (and (or (or (or x83 (or x16 x47)) x72) x136) (or (or (or x151 (or x146 x47)) x81) x9)) (and (or x124 (or x153 (or x134 (or x148 x60)))) (or x133 (or (or x80 (or x148 x123)) x149))))) (and (or x103 (or x137 (or (or x77 x82) x84))) (or x154 (or (or (or x82 x10) x74) x8)))))) (and (and (or (or (or x35 (or x13 x44)) x25) x99) (or (or x71 (or (or x130 x93) x35)) x157)) (and (and (and (and (or (or x76 (or (or x59 x134) x119)) x51) (or (or (or x119 (or x52 x80)) x141) x158)) (and (or x128 (or (or (or x96 x151) x100) x78)) (or (or (or (or x83 x114) x100) x23) x129))) (and (or x127 (or (or (or x102 x45) x113) x122)) (or (or x150 (or (or x61 x108) x113)) x115))) (and (or (or (or (or x144 x84) x38) x97) x41) (or (or (or x38 (or x17 x74)) x109) x70))))) (and (and (or (or (or x25 (or x20 x94)) x104) x5) (or x63 (or x104 (or (or x121 x75) x71)))) (and (and (and (or x30 (or x1 (or x150 (or x67 x73)))) (or (or (or x122 (or x79 x86)) x1) x49)) (and (and (or x56 (or x142 (or (or x39 x149) x76))) (or (or x142 (or x141 (or x153 x138))) x117)) (and (or x33 (or x65 (or x78 (or x40 x72)))) (or x90 (or (or x23 (or x145 x81)) x65))))) (and (or (or (or x97 (or x8 x143)) x15) x68) (or x64 (or x15 (or x109 (or x22 x137)))))))) (and (and (or x125 (or (or (or x34 x27) x157) x5)) (or x125 (or x63 (or (or x105 x88) x99)))) (and (and (or (or (or (or x36 x154) x41) x64) x92) (or x92 (or x68 (or (or x12 x103) x70)))) (and (and (or x106 (or (or (or x21 x58) x127) x30)) (or (or (or (or x85 x66) x115) x49) x106)) (and (and (or x18 (or (or (or x95 x9) x129) x33)) (or x18 (or (or x128 (or x136 x91)) x90))) (and (or (or (or (or x124 x14) x158) x56) x7) (or (or x117 (or x51 (or x156 x133))) x7))))))))))
(assert (not (and (and (and (= (x126 x50 x50) x4) (= (x126 x98 x98) x87)) (= (x126 x87 x98) x57)) (= x50 (x126 x98 x87)))))
(assert (not (and (= (x126 x4 x98) x57) (and (= (x126 x98 x4) x87) (and (= x50 (x126 x57 x57)) (= (x126 x4 x4) x98))))))
(assert (not (and (= (x126 x98 x50) x87) (and (= (x126 x50 x98) x4) (and (= (x126 x87 x87) x57) (= (x126 x98 x98) x50))))))
(assert (not (and (and (= (x126 x98 x87) x57) (and (= x50 (x126 x4 x4)) (= x98 (x126 x87 x87)))) (= (x126 x87 x98) x4))))
(assert (not (and (= (x126 x98 x4) x87) (and (= (x126 x4 x98) x57) (and (= x4 (x126 x98 x98)) (= x50 (x126 x87 x87)))))))
(assert (not (and (and (= x87 (x126 x50 x4)) (and (= x98 (x126 x57 x57)) (= x50 (x126 x4 x4)))) (= (x126 x4 x50) x57))))
(assert (not (and (= (x126 x87 x57) x50) (and (= x4 (x126 x57 x87)) (and (= x98 (x126 x50 x50)) (= x57 (x126 x87 x87)))))))
(assert (not (and (= (x126 x57 x50) x4) (and (= x98 (x126 x50 x57)) (and (= x50 (x126 x57 x57)) (= x87 (x126 x4 x4)))))))
(assert (not (and (and (and (= x4 (x126 x50 x50)) (= (x126 x57 x57) x87)) (= x98 (x126 x87 x57))) (= x50 (x126 x57 x87)))))
(assert (not (and (= x4 (x126 x87 x50)) (and (and (= x50 (x126 x87 x87)) (= (x126 x4 x4) x57)) (= x98 (x126 x50 x87))))))
(assert (let ((x83 (x126 x57 x57)) (x80 (x126 x98 x57)) (x102 (x126 x98 x4)) (x107 (x126 x50 x57)) (x110 (x126 x50 x50)) (x13 (x126 x87 x98)) (x77 (x126 x4 x50)) (x52 (x126 x57 x98)) (x45 (x126 x4 x98)) (x62 (x126 x87 x50)) (x61 (x126 x4 x87)) (x11 (x126 x57 x87)) (x108 (x126 x87 x4)) (x24 (x126 x4 x4)) (x39 (x126 x87 x87)) (x44 (x126 x98 x87)) (x147 (x126 x50 x4)) (x151 (x126 x57 x4)) (x93 (x126 x98 x98)) (x100 (x126 x4 x57)) (x10 (x126 x50 x98)) (x131 (x126 x57 x50)) (x69 (x126 x87 x57)) (x46 (x126 x50 x87)) (x82 (x126 x98 x50))) (let ((x42 (not (= x50 x77))) (x140 (not (= x50 x52))) (x105 (not (= x62 x87))) (x119 (not (= x57 x151))) (x116 (not (= x131 x57))) (x109 (not (= x4 x108))) (x152 (not (= x131 x50))) (x123 (not (= x50 x13))) (x120 (not (= x102 x50))) (x129 (not (= x10 x98))) (x96 (not (= x83 x57))) (x25 (not (= x4 x39))) (x158 (not (= x108 x98))) (x40 (not (= x57 x46))) (x37 (not (= x108 x50))) (x38 (not (= x45 x57))) (x113 (not (= x57 x82))) (x19 (not (= x61 x50))) (x89 (not (= x151 x4))) (x139 (not (= x57 x110))) (x97 (not (= x4 x46))) (x122 (not (= x4 x102))) (x136 (not (= x147 x98))) (x104 (not (= x83 x98))) (x157 (not (= x13 x87))) (x155 (not (= x80 x50))) (x130 (not (= x57 x93))) (x153 (not (= x77 x4))) (x73 (not (= x24 x4))) (x156 (not (= x102 x98))) (x115 (not (= x110 x87))) (x111 (not (= x151 x50))) (x26 (not (= x110 x50))) (x47 (not (= x50 x62))) (x79 (not (= x80 x4))) (x137 (not (= x4 x11))) (x15 (not (= x4 x61))) (x84 (not (= x57 x102))) (x76 (not (= x110 x4))) (x21 (not (= x83 x87))) (x43 (not (= x131 x4))) (x121 (not (= x110 x98))) (x132 (not (= x50 x10))) (x150 (not (= x10 x4))) (x14 (not (= x98 x69))) (x41 (not (= x82 x87))) (x3 (not (= x24 x50))) (x124 (not (= x98 x11))) (x72 (not (= x69 x57))) (x149 (not (= x39 x57))) (x135 (not (= x4 x107))) (x66 (not (= x44 x98))) (x88 (not (= x46 x87))) (x90 (not (= x151 x98))) (x48 (not (= x50 x39))) (x20 (not (= x44 x4))) (x30 (not (= x147 x87))) (x143 (not (= x4 x93))) (x74 (not (= x80 x57))) (x142 (not (= x4 x100))) (x35 (not (= x57 x62))) (x144 (not (= x57 x52))) (x128 (not (= x98 x100))) (x49 (not (= x87 x131))) (x8 (not (= x4 x62))) (x134 (not (= x100 x57))) (x31 (not (= x50 x69))) (x64 (not (= x10 x87))) (x16 (not (= x50 x93))) (x138 (not (= x4 x83))) (x63 (not (= x87 x11))) (x95 (not (= x98 x24))) (x36 (not (= x87 x151))) (x106 (not (= x100 x87))) (x12 (not (= x80 x87))) (x125 (not (= x87 x39))) (x58 (not (= x87 x107))) (x85 (not (= x98 x39))) (x32 (not (= x147 x50))) (x7 (not (= x98 x13))) (x9 (not (= x82 x98))) (x133 (not (= x98 x45))) (x99 (not (= x69 x87))) (x94 (not (= x13 x4))) (x127 (not (= x87 x77))) (x117 (not (= x62 x98))) (x81 (not (= x57 x61))) (x18 (not (= x52 x98))) (x34 (not (= x61 x87))) (x29 (not (= x57 x24))) (x71 (not (= x98 x107))) (x78 (not (= x57 x11))) (x60 (not (= x50 x46))) (x141 (not (= x147 x4))) (x22 (not (= x4 x69))) (x59 (not (= x147 x57))) (x17 (not (= x10 x57))) (x51 (not (= x93 x98))) (x27 (not (= x87 x108))) (x146 (not (= x45 x50))) (x23 (not (= x13 x57))) (x1 (not (= x4 x45))) (x28 (not (= x77 x57))) (x67 (not (= x4 x82))) (x70 (not (= x102 x87))) (x112 (not (= x46 x98))) (x118 (not (= x50 x82))) (x148 (not (= x50 x44))) (x33 (not (= x98 x80))) (x154 (not (= x87 x24))) (x145 (not (= x57 x108))) (x103 (not (= x52 x87))) (x55 (not (= x50 x11))) (x114 (not (= x57 x107))) (x86 (not (= x52 x4))) (x53 (not (= x50 x107))) (x56 (not (= x61 x98))) (x65 (not (= x57 x44))) (x2 (not (= x50 x100))) (x6 (not (= x50 x83))) (x92 (not (= x87 x93))) (x5 (not (= x44 x87))) (x91 (not (= x98 x77))) (x68 (not (= x45 x87))) (x75 (not (= x98 x131)))) (or (and (and (and (or x157 x5) (and (or x27 x34) (and (or x105 x88) (or x63 x99)))) (or x125 x125)) (and (and (and (and (or x68 x70) (and (and (or x127 x30) (or x106 x36)) (or x154 x154))) (or x27 x34)) (and (and (or x105 x88) (and (and (and (or x115 x115) (or x58 x49)) (or x127 x30)) (or x41 x64))) (and (or x63 x99) (and (or x103 x12) (and (and (or x49 x58) (or x21 x21)) (or x36 x106)))))) (and (or x157 x5) (and (or x92 x92) (and (and (or x103 x12) (or x64 x41)) (or x70 x68)))))) (or (or (or (and (and (and (or x148 x123) (and (and (or x120 x146) (and (or x155 x140) (or x132 x118))) (or x16 x16))) (and (and (and (or x60 x47) (and (and (and (or x26 x26) (or x152 x53)) (or x42 x32)) (or x118 x132))) (and (and (and (or x2 x111) (and (or x6 x6) (or x53 x152))) (or x140 x155)) (or x31 x55))) (and (and (or x120 x146) (and (and (or x2 x111) (or x42 x32)) (or x3 x3))) (or x19 x37)))) (and (or x48 x48) (and (and (or x19 x37) (and (or x47 x60) (or x31 x55))) (or x148 x123)))) (and (and (and (and (and (and (or x113 x17) (and (and (or x139 x139) (or x116 x114)) (or x59 x28))) (or x40 x35)) (and (and (and (and (or x96 x96) (or x114 x116)) (or x134 x119)) (or x144 x74)) (or x72 x78))) (and (or x145 x81) (and (and (or x29 x29) (and (or x28 x59) (or x134 x119))) (or x84 x38)))) (and (or x65 x23) (and (and (or x84 x38) (and (or x144 x74) (or x113 x17))) (or x130 x130)))) (and (or x149 x149) (and (and (or x145 x81) (and (or x72 x78) (or x35 x40))) (or x65 x23))))) (and (and (and (or x94 x20) (and (or x15 x109) (and (or x97 x8) (or x22 x137)))) (or x25 x25)) (and (and (and (or x15 x109) (and (and (and (or x89 x142) (or x153 x141)) (or x73 x73)) (or x1 x122))) (and (and (or x8 x97) (and (and (or x141 x153) (and (or x43 x135) (or x76 x76))) (or x150 x67))) (and (or x137 x22) (and (or x86 x79) (and (and (or x138 x138) (or x43 x135)) (or x89 x142)))))) (and (or x94 x20) (and (and (and (or x150 x67) (or x86 x79)) (or x122 x1)) (or x143 x143)))))) (and (and (and (or x7 x66) (and (or x51 x51) (and (or x133 x156) (and (or x18 x33) (or x129 x9))))) (and (and (and (and (or x33 x18) (and (and (or x75 x71) (or x104 x104)) (or x90 x128))) (or x124 x14)) (and (and (or x9 x129) (and (and (or x71 x75) (or x121 x121)) (or x91 x136))) (or x117 x112))) (and (or x158 x56) (and (or x156 x133) (and (or x95 x95) (and (or x136 x91) (or x128 x90))))))) (and (and (and (or x56 x158) (and (or x124 x14) (or x112 x117))) (or x66 x7)) (or x85 x85))))))))
(assert (not (and (= x87 (x126 x98 x57)) (and (and (= (x126 x98 x98) x57) (= x50 (x126 x87 x87))) (= x4 (x126 x57 x98))))))
(assert (not (and (= x4 (x126 x98 x87)) (and (and (= x87 (x126 x98 x98)) (= x57 (x126 x4 x4))) (= (x126 x87 x98) x50)))))
(assert (not (and (and (and (= x87 (x126 x98 x98)) (= x57 (x126 x4 x4))) (= (x126 x57 x4) x50)) (= (x126 x4 x57) x98))))
(assert (not (and (= (x126 x57 x4) x87) (and (and (= (x126 x87 x87) x98) (= (x126 x57 x57) x4)) (= (x126 x4 x57) x50)))))
(assert (not (and (= (x126 x50 x98) x57) (and (and (= (x126 x50 x50) x98) (= (x126 x57 x57) x4)) (= (x126 x98 x50) x87)))))
(assert (not (and (and (= x98 (x126 x4 x50)) (and (= x4 (x126 x50 x50)) (= (x126 x57 x57) x87))) (= (x126 x50 x4) x57))))
(assert (not (and (= x50 (x126 x4 x98)) (and (= (x126 x98 x4) x57) (and (= x87 (x126 x50 x50)) (= (x126 x4 x4) x98))))))
(assert (not (and (= (x126 x57 x4) x98) (and (= (x126 x4 x57) x87) (and (= x50 (x126 x98 x98)) (= (x126 x57 x57) x4))))))
(assert (not (and (and (= (x126 x4 x57) x98) (and (= x4 (x126 x57 x57)) (= x87 (x126 x50 x50)))) (= x50 (x126 x57 x4)))))
(assert (not (and (and (and (= (x126 x98 x98) x87) (= (x126 x57 x57) x50)) (= (x126 x50 x57) x4)) (= (x126 x57 x50) x98))))
(assert (not (and (= x98 (x126 x50 x87)) (and (and (= x57 (x126 x98 x98)) (= (x126 x50 x50) x87)) (= x4 (x126 x87 x50))))))
(assert (not (and (= x57 (x126 x87 x98)) (and (and (= x98 (x126 x87 x87)) (= (x126 x57 x57) x4)) (= x50 (x126 x98 x87))))))
(check-sat)
(exit)
